GNR Zigzag Hydrogenated 15              
   1.00000000000000     
     2.4609999999999999    0.0000000000000000    0.0000000000000000
     0.0000000000000000   39.8797572869403965    0.0000000000000000
     0.0000000000000000    0.0000000000000000    5.0000000000000000
   C    H 
    32     2
Selective dynamics
Direct
  0.0000000000000000  0.0720083546239525  0.0000000000000000   T   T   F
  0.5000000000000000  0.0887907827308321  0.0000000000000000   T   T   F
  0.5000000000000000  0.1247000203106410  0.0000000000000000   F   F   F
  0.0000000000000000  0.1425143089264438  0.0000000000000000   F   F   F
  0.0000000000000000  0.1781428861580565  0.0000000000000000   F   F   F
  0.5000000000000000  0.1959571747738593  0.0000000000000000   F   F   F
  0.5000000000000000  0.2315857520054720  0.0000000000000000   F   F   F
  0.0000000000000000  0.2494000406212820  0.0000000000000000   F   F   F
  0.0000000000000000  0.2850286178528876  0.0000000000000000   F   F   F
  0.5000000000000000  0.3028429064686975  0.0000000000000000   F   F   F
  0.5000000000000000  0.3384714837003102  0.0000000000000000   F   F   F
  0.0000000000000000  0.3562857723161130  0.0000000000000000   F   F   F
  0.0000000000000000  0.3919143495477257  0.0000000000000000   F   F   F
  0.5000000000000000  0.4097286381635286  0.0000000000000000   F   F   F
  0.5000000000000000  0.4453572153951413  0.0000000000000000   F   F   F
  0.0000000000000000  0.4631715040109441  0.0000000000000000   F   F   F
  0.0000000000000000  0.4988000812425568  0.0000000000000000   F   F   F
  0.5000000000000000  0.5166143698583667  0.0000000000000000   F   F   F
  0.5000000000000000  0.5522429470899723  0.0000000000000000   F   F   F
  0.0000000000000000  0.5700572357057823  0.0000000000000000   F   F   F
  0.0000000000000000  0.6056858129373950  0.0000000000000000   F   F   F
  0.5000000000000000  0.6235001015531978  0.0000000000000000   F   F   F
  0.5000000000000000  0.6591286787848105  0.0000000000000000   F   F   F
  0.0000000000000000  0.6769429674006133  0.0000000000000000   F   F   F
  0.0000000000000000  0.7125715446322261  0.0000000000000000   F   F   F
  0.5000000000000000  0.7303858332480289  0.0000000000000000   F   F   F
  0.5000000000000000  0.7660144104796416  0.0000000000000000   F   F   F
  0.0000000000000000  0.7838286990954515  0.0000000000000000   F   F   F
  0.0000000000000000  0.8194572763270571  0.0000000000000000   F   F   F
  0.5000000000000000  0.8372715649428670  0.0000000000000000   F   F   F
  0.5000000000000000  0.8731808025226758  0.0000000000000000   T   T   F
  0.0000000000000000  0.8899632306295555  0.0000000000000000   T   T   F
  0.0000000000000000  0.0444198921605986  0.0000000000000000   T   T   F
  0.0000000000000000  0.9175516930929094  0.0000000000000000   T   T   F
 
  0.00000000E+00  0.00000000E+00  0.00000000E+00
  0.00000000E+00  0.00000000E+00  0.00000000E+00
  0.00000000E+00  0.00000000E+00  0.00000000E+00
  0.00000000E+00  0.00000000E+00  0.00000000E+00
  0.00000000E+00  0.00000000E+00  0.00000000E+00
  0.00000000E+00  0.00000000E+00  0.00000000E+00
  0.00000000E+00  0.00000000E+00  0.00000000E+00
  0.00000000E+00  0.00000000E+00  0.00000000E+00
  0.00000000E+00  0.00000000E+00  0.00000000E+00
  0.00000000E+00  0.00000000E+00  0.00000000E+00
  0.00000000E+00  0.00000000E+00  0.00000000E+00
  0.00000000E+00  0.00000000E+00  0.00000000E+00
  0.00000000E+00  0.00000000E+00  0.00000000E+00
  0.00000000E+00  0.00000000E+00  0.00000000E+00
  0.00000000E+00  0.00000000E+00  0.00000000E+00
  0.00000000E+00  0.00000000E+00  0.00000000E+00
  0.00000000E+00  0.00000000E+00  0.00000000E+00
  0.00000000E+00  0.00000000E+00  0.00000000E+00
  0.00000000E+00  0.00000000E+00  0.00000000E+00
  0.00000000E+00  0.00000000E+00  0.00000000E+00
  0.00000000E+00  0.00000000E+00  0.00000000E+00
  0.00000000E+00  0.00000000E+00  0.00000000E+00
  0.00000000E+00  0.00000000E+00  0.00000000E+00
  0.00000000E+00  0.00000000E+00  0.00000000E+00
  0.00000000E+00  0.00000000E+00  0.00000000E+00
  0.00000000E+00  0.00000000E+00  0.00000000E+00
  0.00000000E+00  0.00000000E+00  0.00000000E+00
  0.00000000E+00  0.00000000E+00  0.00000000E+00
  0.00000000E+00  0.00000000E+00  0.00000000E+00
  0.00000000E+00  0.00000000E+00  0.00000000E+00
  0.00000000E+00  0.00000000E+00  0.00000000E+00
  0.00000000E+00  0.00000000E+00  0.00000000E+00
  0.00000000E+00  0.00000000E+00  0.00000000E+00
  0.00000000E+00  0.00000000E+00  0.00000000E+00
