graphene                                
   1.420859012475669
     0.8660254037844386   1.5000000000000000    0.0000000000000000  
    -0.8660254037844386   1.5000000000000000    0.0000000000000000
     0.0000000000000000   0.0000000000000000    5.0000000000000000
   C 
   2
Direct
  0.3333333333333333  0.3333333333333333  0.0000000000000000
  0.6666666666666666  0.6666666666666666  0.0000000000000000
 
  0.00000000E+00  0.00000000E+00  0.00000000E+00
  0.00000000E+00  0.00000000E+00  0.00000000E+00
